c Standarized MaxSat Instance
c{
c "sha1sum": "562e25c2ac600ed2a533da608500bf95cc04eb8c",
c "nvars": 40,
c "ncls": 1178,
c "total_lits": 2356,
c "nhards": 0,
c "nhard_nlits": 0,
c "nhard_len_stats":
c    { "min": 0,
c      "max": 0,
c      "ave": 0.0000,
c      "stddev": 0.0000 },
c "nsofts": 1178,
c "nsoft_nlits": 2356,
c "nsoft_len_stats":
c    { "min": 2,
c      "max": 2,
c      "ave": 2.0000,
c      "stddev": 0.0000 },
c "nsoft_wts": 1,
c "soft_wt_stats":
c    { "min": 1,
c      "max": 1,
c      "ave": 1.0000,
c      "stddev": 0.0000 }
c}
c------------------------------------------------------------
c FILE:  brock400_4.b
c
c Graph Generator
c
c By: Mark Brockington (brock@cs.ualberta.ca)
c and Joe Culberson (joe@cs.ualberta.ca)
c
c Graph Size:400, Clique Size: 33
c Seed:3, Edge Density:  0.75000
c Depth 1 Hiding
c
c Clique Elements are:
c 269 293 342 393 246 395 388 7 333 323 
c 111 156 134 153 160 361 16 185 339 196 
c 244 392 201 241 210 6 18 240 266 352 
c 146 379 265 
c
c Estimated Size of Uncompressed File:   0.6MB
c
1 1 2 0
1 -1 -2 0
1 1 3 0
1 -1 -3 0
1 1 4 0
1 -1 -4 0
1 1 6 0
1 -1 -6 0
1 1 9 0
1 -1 -9 0
1 1 10 0
1 -1 -10 0
1 1 11 0
1 -1 -11 0
1 1 12 0
1 -1 -12 0
1 1 13 0
1 -1 -13 0
1 1 14 0
1 -1 -14 0
1 1 15 0
1 -1 -15 0
1 1 16 0
1 -1 -16 0
1 1 17 0
1 -1 -17 0
1 1 18 0
1 -1 -18 0
1 1 19 0
1 -1 -19 0
1 1 20 0
1 -1 -20 0
1 1 21 0
1 -1 -21 0
1 1 22 0
1 -1 -22 0
1 1 23 0
1 -1 -23 0
1 1 24 0
1 -1 -24 0
1 1 25 0
1 -1 -25 0
1 1 26 0
1 -1 -26 0
1 1 27 0
1 -1 -27 0
1 1 28 0
1 -1 -28 0
1 1 30 0
1 -1 -30 0
1 1 31 0
1 -1 -31 0
1 1 32 0
1 -1 -32 0
1 1 33 0
1 -1 -33 0
1 1 35 0
1 -1 -35 0
1 1 36 0
1 -1 -36 0
1 1 38 0
1 -1 -38 0
1 1 39 0
1 -1 -39 0
1 1 40 0
1 -1 -40 0
1 2 4 0
1 -2 -4 0
1 2 5 0
1 -2 -5 0
1 2 6 0
1 -2 -6 0
1 2 9 0
1 -2 -9 0
1 2 12 0
1 -2 -12 0
1 2 13 0
1 -2 -13 0
1 2 14 0
1 -2 -14 0
1 2 16 0
1 -2 -16 0
1 2 17 0
1 -2 -17 0
1 2 18 0
1 -2 -18 0
1 2 19 0
1 -2 -19 0
1 2 20 0
1 -2 -20 0
1 2 21 0
1 -2 -21 0
1 2 22 0
1 -2 -22 0
1 2 23 0
1 -2 -23 0
1 2 24 0
1 -2 -24 0
1 2 25 0
1 -2 -25 0
1 2 27 0
1 -2 -27 0
1 2 28 0
1 -2 -28 0
1 2 29 0
1 -2 -29 0
1 2 30 0
1 -2 -30 0
1 2 31 0
1 -2 -31 0
1 2 32 0
1 -2 -32 0
1 2 33 0
1 -2 -33 0
1 2 34 0
1 -2 -34 0
1 2 35 0
1 -2 -35 0
1 2 38 0
1 -2 -38 0
1 2 40 0
1 -2 -40 0
1 3 6 0
1 -3 -6 0
1 3 7 0
1 -3 -7 0
1 3 8 0
1 -3 -8 0
1 3 10 0
1 -3 -10 0
1 3 11 0
1 -3 -11 0
1 3 13 0
1 -3 -13 0
1 3 14 0
1 -3 -14 0
1 3 15 0
1 -3 -15 0
1 3 16 0
1 -3 -16 0
1 3 19 0
1 -3 -19 0
1 3 20 0
1 -3 -20 0
1 3 21 0
1 -3 -21 0
1 3 22 0
1 -3 -22 0
1 3 23 0
1 -3 -23 0
1 3 25 0
1 -3 -25 0
1 3 27 0
1 -3 -27 0
1 3 28 0
1 -3 -28 0
1 3 29 0
1 -3 -29 0
1 3 31 0
1 -3 -31 0
1 3 34 0
1 -3 -34 0
1 3 35 0
1 -3 -35 0
1 3 38 0
1 -3 -38 0
1 3 39 0
1 -3 -39 0
1 3 40 0
1 -3 -40 0
1 4 7 0
1 -4 -7 0
1 4 8 0
1 -4 -8 0
1 4 9 0
1 -4 -9 0
1 4 10 0
1 -4 -10 0
1 4 11 0
1 -4 -11 0
1 4 12 0
1 -4 -12 0
1 4 13 0
1 -4 -13 0
1 4 14 0
1 -4 -14 0
1 4 15 0
1 -4 -15 0
1 4 16 0
1 -4 -16 0
1 4 17 0
1 -4 -17 0
1 4 18 0
1 -4 -18 0
1 4 21 0
1 -4 -21 0
1 4 23 0
1 -4 -23 0
1 4 24 0
1 -4 -24 0
1 4 25 0
1 -4 -25 0
1 4 26 0
1 -4 -26 0
1 4 27 0
1 -4 -27 0
1 4 28 0
1 -4 -28 0
1 4 29 0
1 -4 -29 0
1 4 30 0
1 -4 -30 0
1 4 31 0
1 -4 -31 0
1 4 32 0
1 -4 -32 0
1 4 33 0
1 -4 -33 0
1 4 34 0
1 -4 -34 0
1 4 36 0
1 -4 -36 0
1 4 38 0
1 -4 -38 0
1 4 40 0
1 -4 -40 0
1 5 6 0
1 -5 -6 0
1 5 7 0
1 -5 -7 0
1 5 8 0
1 -5 -8 0
1 5 9 0
1 -5 -9 0
1 5 10 0
1 -5 -10 0
1 5 11 0
1 -5 -11 0
1 5 15 0
1 -5 -15 0
1 5 16 0
1 -5 -16 0
1 5 17 0
1 -5 -17 0
1 5 18 0
1 -5 -18 0
1 5 19 0
1 -5 -19 0
1 5 20 0
1 -5 -20 0
1 5 21 0
1 -5 -21 0
1 5 23 0
1 -5 -23 0
1 5 24 0
1 -5 -24 0
1 5 25 0
1 -5 -25 0
1 5 26 0
1 -5 -26 0
1 5 29 0
1 -5 -29 0
1 5 30 0
1 -5 -30 0
1 5 31 0
1 -5 -31 0
1 5 32 0
1 -5 -32 0
1 5 34 0
1 -5 -34 0
1 5 35 0
1 -5 -35 0
1 5 36 0
1 -5 -36 0
1 5 37 0
1 -5 -37 0
1 5 38 0
1 -5 -38 0
1 5 40 0
1 -5 -40 0
1 6 9 0
1 -6 -9 0
1 6 10 0
1 -6 -10 0
1 6 12 0
1 -6 -12 0
1 6 13 0
1 -6 -13 0
1 6 14 0
1 -6 -14 0
1 6 15 0
1 -6 -15 0
1 6 16 0
1 -6 -16 0
1 6 18 0
1 -6 -18 0
1 6 19 0
1 -6 -19 0
1 6 20 0
1 -6 -20 0
1 6 21 0
1 -6 -21 0
1 6 22 0
1 -6 -22 0
1 6 25 0
1 -6 -25 0
1 6 26 0
1 -6 -26 0
1 6 27 0
1 -6 -27 0
1 6 29 0
1 -6 -29 0
1 6 30 0
1 -6 -30 0
1 6 32 0
1 -6 -32 0
1 6 33 0
1 -6 -33 0
1 6 34 0
1 -6 -34 0
1 6 35 0
1 -6 -35 0
1 6 36 0
1 -6 -36 0
1 6 37 0
1 -6 -37 0
1 6 40 0
1 -6 -40 0
1 7 8 0
1 -7 -8 0
1 7 9 0
1 -7 -9 0
1 7 10 0
1 -7 -10 0
1 7 11 0
1 -7 -11 0
1 7 12 0
1 -7 -12 0
1 7 14 0
1 -7 -14 0
1 7 15 0
1 -7 -15 0
1 7 16 0
1 -7 -16 0
1 7 17 0
1 -7 -17 0
1 7 20 0
1 -7 -20 0
1 7 21 0
1 -7 -21 0
1 7 22 0
1 -7 -22 0
1 7 23 0
1 -7 -23 0
1 7 26 0
1 -7 -26 0
1 7 27 0
1 -7 -27 0
1 7 28 0
1 -7 -28 0
1 7 29 0
1 -7 -29 0
1 7 30 0
1 -7 -30 0
1 7 31 0
1 -7 -31 0
1 7 32 0
1 -7 -32 0
1 7 33 0
1 -7 -33 0
1 7 34 0
1 -7 -34 0
1 7 35 0
1 -7 -35 0
1 7 36 0
1 -7 -36 0
1 7 37 0
1 -7 -37 0
1 7 39 0
1 -7 -39 0
1 7 40 0
1 -7 -40 0
1 8 10 0
1 -8 -10 0
1 8 12 0
1 -8 -12 0
1 8 13 0
1 -8 -13 0
1 8 14 0
1 -8 -14 0
1 8 15 0
1 -8 -15 0
1 8 18 0
1 -8 -18 0
1 8 19 0
1 -8 -19 0
1 8 20 0
1 -8 -20 0
1 8 21 0
1 -8 -21 0
1 8 22 0
1 -8 -22 0
1 8 23 0
1 -8 -23 0
1 8 26 0
1 -8 -26 0
1 8 28 0
1 -8 -28 0
1 8 30 0
1 -8 -30 0
1 8 31 0
1 -8 -31 0
1 8 32 0
1 -8 -32 0
1 8 33 0
1 -8 -33 0
1 8 34 0
1 -8 -34 0
1 8 35 0
1 -8 -35 0
1 8 36 0
1 -8 -36 0
1 8 37 0
1 -8 -37 0
1 8 40 0
1 -8 -40 0
1 9 10 0
1 -9 -10 0
1 9 11 0
1 -9 -11 0
1 9 13 0
1 -9 -13 0
1 9 14 0
1 -9 -14 0
1 9 15 0
1 -9 -15 0
1 9 16 0
1 -9 -16 0
1 9 17 0
1 -9 -17 0
1 9 19 0
1 -9 -19 0
1 9 21 0
1 -9 -21 0
1 9 22 0
1 -9 -22 0
1 9 23 0
1 -9 -23 0
1 9 24 0
1 -9 -24 0
1 9 25 0
1 -9 -25 0
1 9 26 0
1 -9 -26 0
1 9 27 0
1 -9 -27 0
1 9 29 0
1 -9 -29 0
1 9 30 0
1 -9 -30 0
1 9 31 0
1 -9 -31 0
1 9 34 0
1 -9 -34 0
1 9 36 0
1 -9 -36 0
1 9 38 0
1 -9 -38 0
1 9 39 0
1 -9 -39 0
1 10 11 0
1 -10 -11 0
1 10 12 0
1 -10 -12 0
1 10 14 0
1 -10 -14 0
1 10 15 0
1 -10 -15 0
1 10 16 0
1 -10 -16 0
1 10 17 0
1 -10 -17 0
1 10 18 0
1 -10 -18 0
1 10 20 0
1 -10 -20 0
1 10 21 0
1 -10 -21 0
1 10 22 0
1 -10 -22 0
1 10 23 0
1 -10 -23 0
1 10 24 0
1 -10 -24 0
1 10 25 0
1 -10 -25 0
1 10 26 0
1 -10 -26 0
1 10 27 0
1 -10 -27 0
1 10 30 0
1 -10 -30 0
1 10 31 0
1 -10 -31 0
1 10 32 0
1 -10 -32 0
1 10 34 0
1 -10 -34 0
1 10 35 0
1 -10 -35 0
1 10 37 0
1 -10 -37 0
1 10 40 0
1 -10 -40 0
1 11 12 0
1 -11 -12 0
1 11 13 0
1 -11 -13 0
1 11 15 0
1 -11 -15 0
1 11 16 0
1 -11 -16 0
1 11 19 0
1 -11 -19 0
1 11 20 0
1 -11 -20 0
1 11 21 0
1 -11 -21 0
1 11 22 0
1 -11 -22 0
1 11 23 0
1 -11 -23 0
1 11 25 0
1 -11 -25 0
1 11 26 0
1 -11 -26 0
1 11 27 0
1 -11 -27 0
1 11 28 0
1 -11 -28 0
1 11 29 0
1 -11 -29 0
1 11 30 0
1 -11 -30 0
1 11 31 0
1 -11 -31 0
1 11 32 0
1 -11 -32 0
1 11 33 0
1 -11 -33 0
1 11 34 0
1 -11 -34 0
1 11 36 0
1 -11 -36 0
1 11 37 0
1 -11 -37 0
1 11 39 0
1 -11 -39 0
1 11 40 0
1 -11 -40 0
1 12 14 0
1 -12 -14 0
1 12 15 0
1 -12 -15 0
1 12 17 0
1 -12 -17 0
1 12 21 0
1 -12 -21 0
1 12 22 0
1 -12 -22 0
1 12 24 0
1 -12 -24 0
1 12 25 0
1 -12 -25 0
1 12 27 0
1 -12 -27 0
1 12 30 0
1 -12 -30 0
1 12 31 0
1 -12 -31 0
1 12 33 0
1 -12 -33 0
1 12 34 0
1 -12 -34 0
1 12 35 0
1 -12 -35 0
1 12 36 0
1 -12 -36 0
1 12 37 0
1 -12 -37 0
1 12 38 0
1 -12 -38 0
1 12 39 0
1 -12 -39 0
1 12 40 0
1 -12 -40 0
1 13 14 0
1 -13 -14 0
1 13 15 0
1 -13 -15 0
1 13 16 0
1 -13 -16 0
1 13 17 0
1 -13 -17 0
1 13 18 0
1 -13 -18 0
1 13 19 0
1 -13 -19 0
1 13 20 0
1 -13 -20 0
1 13 21 0
1 -13 -21 0
1 13 22 0
1 -13 -22 0
1 13 23 0
1 -13 -23 0
1 13 26 0
1 -13 -26 0
1 13 27 0
1 -13 -27 0
1 13 28 0
1 -13 -28 0
1 13 29 0
1 -13 -29 0
1 13 30 0
1 -13 -30 0
1 13 32 0
1 -13 -32 0
1 13 34 0
1 -13 -34 0
1 13 35 0
1 -13 -35 0
1 13 36 0
1 -13 -36 0
1 13 37 0
1 -13 -37 0
1 13 38 0
1 -13 -38 0
1 13 40 0
1 -13 -40 0
1 14 15 0
1 -14 -15 0
1 14 16 0
1 -14 -16 0
1 14 17 0
1 -14 -17 0
1 14 19 0
1 -14 -19 0
1 14 21 0
1 -14 -21 0
1 14 22 0
1 -14 -22 0
1 14 23 0
1 -14 -23 0
1 14 24 0
1 -14 -24 0
1 14 25 0
1 -14 -25 0
1 14 26 0
1 -14 -26 0
1 14 27 0
1 -14 -27 0
1 14 28 0
1 -14 -28 0
1 14 29 0
1 -14 -29 0
1 14 31 0
1 -14 -31 0
1 14 32 0
1 -14 -32 0
1 14 33 0
1 -14 -33 0
1 14 34 0
1 -14 -34 0
1 14 35 0
1 -14 -35 0
1 14 36 0
1 -14 -36 0
1 14 37 0
1 -14 -37 0
1 14 38 0
1 -14 -38 0
1 14 39 0
1 -14 -39 0
1 14 40 0
1 -14 -40 0
1 15 16 0
1 -15 -16 0
1 15 17 0
1 -15 -17 0
1 15 18 0
1 -15 -18 0
1 15 19 0
1 -15 -19 0
1 15 20 0
1 -15 -20 0
1 15 25 0
1 -15 -25 0
1 15 26 0
1 -15 -26 0
1 15 28 0
1 -15 -28 0
1 15 29 0
1 -15 -29 0
1 15 30 0
1 -15 -30 0
1 15 31 0
1 -15 -31 0
1 15 32 0
1 -15 -32 0
1 15 33 0
1 -15 -33 0
1 15 35 0
1 -15 -35 0
1 15 36 0
1 -15 -36 0
1 15 38 0
1 -15 -38 0
1 15 39 0
1 -15 -39 0
1 15 40 0
1 -15 -40 0
1 16 17 0
1 -16 -17 0
1 16 18 0
1 -16 -18 0
1 16 19 0
1 -16 -19 0
1 16 21 0
1 -16 -21 0
1 16 22 0
1 -16 -22 0
1 16 23 0
1 -16 -23 0
1 16 25 0
1 -16 -25 0
1 16 26 0
1 -16 -26 0
1 16 29 0
1 -16 -29 0
1 16 30 0
1 -16 -30 0
1 16 31 0
1 -16 -31 0
1 16 33 0
1 -16 -33 0
1 16 35 0
1 -16 -35 0
1 16 37 0
1 -16 -37 0
1 16 38 0
1 -16 -38 0
1 16 39 0
1 -16 -39 0
1 16 40 0
1 -16 -40 0
1 17 18 0
1 -17 -18 0
1 17 20 0
1 -17 -20 0
1 17 22 0
1 -17 -22 0
1 17 25 0
1 -17 -25 0
1 17 26 0
1 -17 -26 0
1 17 27 0
1 -17 -27 0
1 17 28 0
1 -17 -28 0
1 17 29 0
1 -17 -29 0
1 17 31 0
1 -17 -31 0
1 17 33 0
1 -17 -33 0
1 17 34 0
1 -17 -34 0
1 17 35 0
1 -17 -35 0
1 17 36 0
1 -17 -36 0
1 17 38 0
1 -17 -38 0
1 17 39 0
1 -17 -39 0
1 17 40 0
1 -17 -40 0
1 18 19 0
1 -18 -19 0
1 18 20 0
1 -18 -20 0
1 18 22 0
1 -18 -22 0
1 18 24 0
1 -18 -24 0
1 18 25 0
1 -18 -25 0
1 18 26 0
1 -18 -26 0
1 18 27 0
1 -18 -27 0
1 18 28 0
1 -18 -28 0
1 18 29 0
1 -18 -29 0
1 18 32 0
1 -18 -32 0
1 18 33 0
1 -18 -33 0
1 18 34 0
1 -18 -34 0
1 18 35 0
1 -18 -35 0
1 18 37 0
1 -18 -37 0
1 18 40 0
1 -18 -40 0
1 19 22 0
1 -19 -22 0
1 19 23 0
1 -19 -23 0
1 19 24 0
1 -19 -24 0
1 19 25 0
1 -19 -25 0
1 19 26 0
1 -19 -26 0
1 19 28 0
1 -19 -28 0
1 19 29 0
1 -19 -29 0
1 19 30 0
1 -19 -30 0
1 19 31 0
1 -19 -31 0
1 19 32 0
1 -19 -32 0
1 19 33 0
1 -19 -33 0
1 19 34 0
1 -19 -34 0
1 19 35 0
1 -19 -35 0
1 19 36 0
1 -19 -36 0
1 19 37 0
1 -19 -37 0
1 19 39 0
1 -19 -39 0
1 19 40 0
1 -19 -40 0
1 20 21 0
1 -20 -21 0
1 20 22 0
1 -20 -22 0
1 20 23 0
1 -20 -23 0
1 20 26 0
1 -20 -26 0
1 20 28 0
1 -20 -28 0
1 20 29 0
1 -20 -29 0
1 20 30 0
1 -20 -30 0
1 20 32 0
1 -20 -32 0
1 20 33 0
1 -20 -33 0
1 20 34 0
1 -20 -34 0
1 20 35 0
1 -20 -35 0
1 20 36 0
1 -20 -36 0
1 20 37 0
1 -20 -37 0
1 20 38 0
1 -20 -38 0
1 20 40 0
1 -20 -40 0
1 21 22 0
1 -21 -22 0
1 21 23 0
1 -21 -23 0
1 21 24 0
1 -21 -24 0
1 21 27 0
1 -21 -27 0
1 21 29 0
1 -21 -29 0
1 21 30 0
1 -21 -30 0
1 21 32 0
1 -21 -32 0
1 21 33 0
1 -21 -33 0
1 21 35 0
1 -21 -35 0
1 21 36 0
1 -21 -36 0
1 21 37 0
1 -21 -37 0
1 21 38 0
1 -21 -38 0
1 21 40 0
1 -21 -40 0
1 22 23 0
1 -22 -23 0
1 22 24 0
1 -22 -24 0
1 22 25 0
1 -22 -25 0
1 22 26 0
1 -22 -26 0
1 22 27 0
1 -22 -27 0
1 22 29 0
1 -22 -29 0
1 22 30 0
1 -22 -30 0
1 22 31 0
1 -22 -31 0
1 22 32 0
1 -22 -32 0
1 22 34 0
1 -22 -34 0
1 22 35 0
1 -22 -35 0
1 22 36 0
1 -22 -36 0
1 22 38 0
1 -22 -38 0
1 22 40 0
1 -22 -40 0
1 23 25 0
1 -23 -25 0
1 23 26 0
1 -23 -26 0
1 23 27 0
1 -23 -27 0
1 23 28 0
1 -23 -28 0
1 23 31 0
1 -23 -31 0
1 23 32 0
1 -23 -32 0
1 23 33 0
1 -23 -33 0
1 23 34 0
1 -23 -34 0
1 23 35 0
1 -23 -35 0
1 23 37 0
1 -23 -37 0
1 23 38 0
1 -23 -38 0
1 23 39 0
1 -23 -39 0
1 24 25 0
1 -24 -25 0
1 24 26 0
1 -24 -26 0
1 24 28 0
1 -24 -28 0
1 24 29 0
1 -24 -29 0
1 24 30 0
1 -24 -30 0
1 24 31 0
1 -24 -31 0
1 24 32 0
1 -24 -32 0
1 24 33 0
1 -24 -33 0
1 24 34 0
1 -24 -34 0
1 24 36 0
1 -24 -36 0
1 24 38 0
1 -24 -38 0
1 24 39 0
1 -24 -39 0
1 24 40 0
1 -24 -40 0
1 25 26 0
1 -25 -26 0
1 25 27 0
1 -25 -27 0
1 25 28 0
1 -25 -28 0
1 25 29 0
1 -25 -29 0
1 25 30 0
1 -25 -30 0
1 25 32 0
1 -25 -32 0
1 25 33 0
1 -25 -33 0
1 25 34 0
1 -25 -34 0
1 25 36 0
1 -25 -36 0
1 25 37 0
1 -25 -37 0
1 25 38 0
1 -25 -38 0
1 25 39 0
1 -25 -39 0
1 25 40 0
1 -25 -40 0
1 26 27 0
1 -26 -27 0
1 26 28 0
1 -26 -28 0
1 26 29 0
1 -26 -29 0
1 26 30 0
1 -26 -30 0
1 26 31 0
1 -26 -31 0
1 26 32 0
1 -26 -32 0
1 26 34 0
1 -26 -34 0
1 26 35 0
1 -26 -35 0
1 26 37 0
1 -26 -37 0
1 26 38 0
1 -26 -38 0
1 26 39 0
1 -26 -39 0
1 26 40 0
1 -26 -40 0
1 27 28 0
1 -27 -28 0
1 27 29 0
1 -27 -29 0
1 27 30 0
1 -27 -30 0
1 27 32 0
1 -27 -32 0
1 27 33 0
1 -27 -33 0
1 27 34 0
1 -27 -34 0
1 27 36 0
1 -27 -36 0
1 27 37 0
1 -27 -37 0
1 27 38 0
1 -27 -38 0
1 27 40 0
1 -27 -40 0
1 28 29 0
1 -28 -29 0
1 28 30 0
1 -28 -30 0
1 28 31 0
1 -28 -31 0
1 28 32 0
1 -28 -32 0
1 28 33 0
1 -28 -33 0
1 28 34 0
1 -28 -34 0
1 28 35 0
1 -28 -35 0
1 28 36 0
1 -28 -36 0
1 28 37 0
1 -28 -37 0
1 28 38 0
1 -28 -38 0
1 28 39 0
1 -28 -39 0
1 28 40 0
1 -28 -40 0
1 29 30 0
1 -29 -30 0
1 29 31 0
1 -29 -31 0
1 29 32 0
1 -29 -32 0
1 29 34 0
1 -29 -34 0
1 29 35 0
1 -29 -35 0
1 29 36 0
1 -29 -36 0
1 29 37 0
1 -29 -37 0
1 29 38 0
1 -29 -38 0
1 29 39 0
1 -29 -39 0
1 29 40 0
1 -29 -40 0
1 30 31 0
1 -30 -31 0
1 30 32 0
1 -30 -32 0
1 30 33 0
1 -30 -33 0
1 30 34 0
1 -30 -34 0
1 30 35 0
1 -30 -35 0
1 30 36 0
1 -30 -36 0
1 30 37 0
1 -30 -37 0
1 30 38 0
1 -30 -38 0
1 30 39 0
1 -30 -39 0
1 30 40 0
1 -30 -40 0
1 31 32 0
1 -31 -32 0
1 31 33 0
1 -31 -33 0
1 31 34 0
1 -31 -34 0
1 31 35 0
1 -31 -35 0
1 31 37 0
1 -31 -37 0
1 31 38 0
1 -31 -38 0
1 31 40 0
1 -31 -40 0
1 32 33 0
1 -32 -33 0
1 32 34 0
1 -32 -34 0
1 32 36 0
1 -32 -36 0
1 32 37 0
1 -32 -37 0
1 32 38 0
1 -32 -38 0
1 32 40 0
1 -32 -40 0
1 33 35 0
1 -33 -35 0
1 33 37 0
1 -33 -37 0
1 33 38 0
1 -33 -38 0
1 33 40 0
1 -33 -40 0
1 34 35 0
1 -34 -35 0
1 34 38 0
1 -34 -38 0
1 34 39 0
1 -34 -39 0
1 34 40 0
1 -34 -40 0
1 35 36 0
1 -35 -36 0
1 35 40 0
1 -35 -40 0
1 36 39 0
1 -36 -39 0
1 36 40 0
1 -36 -40 0
1 37 39 0
1 -37 -39 0
1 37 40 0
1 -37 -40 0
1 38 40 0
1 -38 -40 0
1 39 40 0
1 -39 -40 0
